
Gurobi 10.0.1 (linux64) logging started Sun Nov 26 16:35:12 2023

Set parameter LogFile to value "ArtificialInstance/ExperimentV2/S3T4K3/AdSp/gurobi91.txt"
Gurobi Optimizer version 10.0.1 build v10.0.1rc0 (linux64)

CPU model: AMD EPYC 7H12 64-Core Processor, instruction set [SSE2|AVX|AVX2]
Thread count: 128 physical cores, 128 logical processors, using up to 32 threads

Academic license 656792 - for non-commercial use only - registered to b.___@student.vu.nl
Optimize a model with 17280 rows, 16344 columns and 62958 nonzeros
Model fingerprint: 0xa0323c3f
Variable types: 0 continuous, 16344 integer (16344 binary)
Coefficient statistics:
  Matrix range     [1e+00, 1e+00]
  Objective range  [1e+00, 2e+01]
  Bounds range     [1e+00, 1e+00]
  RHS range        [1e+00, 1e+00]
Presolve removed 5144 rows and 5234 columns
Presolve time: 0.39s
Presolved: 12136 rows, 11110 columns, 43834 nonzeros
Variable types: 0 continuous, 11110 integer (11110 binary)

Root relaxation: objective 7.737308e+01, 6921 iterations, 0.37 seconds (0.24 work units)

    Nodes    |    Current Node    |     Objective Bounds      |     Work
 Expl Unexpl |  Obj  Depth IntInf | Incumbent    BestBd   Gap | It/Node Time

     0     0   77.37308    0  148          -   77.37308      -     -    0s
H    0     0                     117.7718907   77.37308  34.3%     -    0s
H    0     0                      78.3956831   77.37308  1.30%     -    0s
     0     0     cutoff    0        78.39568   78.39568  0.00%     -    1s

Cutting planes:
  Gomory: 4
  Zero half: 4

Explored 1 nodes (9689 simplex iterations) in 1.13 seconds (0.72 work units)
Thread count was 32 (of 128 available processors)

Solution count 2: 78.3957 117.772 

Optimal solution found (tolerance 1.00e-04)
Best objective 7.839568310690e+01, best bound 7.839568310690e+01, gap 0.0000%
